unsat
(define-fun f ((x (_ BitVec 64))) (_ BitVec 64) (im (bvand #b0000000000000000000000000000000000000000000000000000000000000001 x) (smol x) (im (bvand #b0000000000000000000000000000000000000000000000000000000000000001 (shesh x)) (bvnot #b0000000000000000000000000000000000000000000000000000000000000001) (bvnot (bvxor #b0000000000000000000000000000000000000000000000000000000000000001 (ehad x))))))
0.81user 0.00system 0:00.81elapsed 99%CPU (0avgtext+0avgdata 34828maxresident)k
8inputs+8outputs (0major+3489minor)pagefaults 0swaps
